certificates/rado_a5_c148_N29.cnf
c Rad2 upper bound instance: x1 + 5*x2 - x3 = 148, interval [1,29]
p cnf 29 162
1 4 29 0
-1 -4 -29 0
2 5 29 0
-2 -5 -29 0
3 6 29 0
-3 -6 -29 0
4 7 29 0
-4 -7 -29 0
5 8 29 0
-5 -8 -29 0
1 9 28 0
-1 -9 -28 0
6 9 29 0
-6 -9 -29 0
2 10 28 0
-2 -10 -28 0
7 10 29 0
-7 -10 -29 0
3 11 28 0
-3 -11 -28 0
8 11 29 0
-8 -11 -29 0
4 12 28 0
-4 -12 -28 0
9 12 29 0
-9 -12 -29 0
5 13 28 0
-5 -13 -28 0
10 13 29 0
-10 -13 -29 0
1 14 27 0
-1 -14 -27 0
6 14 28 0
-6 -14 -28 0
11 14 29 0
-11 -14 -29 0
2 15 27 0
-2 -15 -27 0
7 15 28 0
-7 -15 -28 0
12 15 29 0
-12 -15 -29 0
3 16 27 0
-3 -16 -27 0
8 16 28 0
-8 -16 -28 0
13 16 29 0
-13 -16 -29 0
4 17 27 0
-4 -17 -27 0
9 17 28 0
-9 -17 -28 0
14 17 29 0
-14 -17 -29 0
5 18 27 0
-5 -18 -27 0
10 18 28 0
-10 -18 -28 0
15 18 29 0
-15 -18 -29 0
1 19 26 0
-1 -19 -26 0
6 19 27 0
-6 -19 -27 0
11 19 28 0
-11 -19 -28 0
16 19 29 0
-16 -19 -29 0
2 20 26 0
-2 -20 -26 0
7 20 27 0
-7 -20 -27 0
12 20 28 0
-12 -20 -28 0
17 20 29 0
-17 -20 -29 0
3 21 26 0
-3 -21 -26 0
8 21 27 0
-8 -21 -27 0
13 21 28 0
-13 -21 -28 0
18 21 29 0
-18 -21 -29 0
4 22 26 0
-4 -22 -26 0
9 22 27 0
-9 -22 -27 0
14 22 28 0
-14 -22 -28 0
19 22 29 0
-19 -22 -29 0
5 23 26 0
-5 -23 -26 0
10 23 27 0
-10 -23 -27 0
15 23 28 0
-15 -23 -28 0
20 23 29 0
-20 -23 -29 0
1 24 25 0
-1 -24 -25 0
6 24 26 0
-6 -24 -26 0
11 24 27 0
-11 -24 -27 0
16 24 28 0
-16 -24 -28 0
21 24 29 0
-21 -24 -29 0
2 25 0
-2 -25 0
7 25 26 0
-7 -25 -26 0
12 25 27 0
-12 -25 -27 0
17 25 28 0
-17 -25 -28 0
22 25 29 0
-22 -25 -29 0
3 25 26 0
-3 -25 -26 0
8 26 0
-8 -26 0
13 26 27 0
-13 -26 -27 0
18 26 28 0
-18 -26 -28 0
23 26 29 0
-23 -26 -29 0
4 25 27 0
-4 -25 -27 0
9 26 27 0
-9 -26 -27 0
14 27 0
-14 -27 0
19 27 28 0
-19 -27 -28 0
24 27 29 0
-24 -27 -29 0
5 25 28 0
-5 -25 -28 0
10 26 28 0
-10 -26 -28 0
15 27 28 0
-15 -27 -28 0
20 28 0
-20 -28 0
25 28 29 0
-25 -28 -29 0
1 24 29 0
-1 -24 -29 0
6 25 29 0
-6 -25 -29 0
11 26 29 0
-11 -26 -29 0
16 27 29 0
-16 -27 -29 0
21 28 29 0
-21 -28 -29 0
26 29 0
-26 -29 0
