certificates/rado_a5_c148_N29.drat
-29 0
26 0
-8 0
5 0
11 0
-23 0
20 0
-2 0
-28 0
25 0
21 0
10 0
16 0
15 0
-7 0
-3 0
4 0
6 0
-22 0
-27 0
-24 0
9 0
14 0
19 0
0
